c Problem generated from carry-save[n-bit] multiplication circuit
c by Paul Purdom and Amr Sabry
c
c Circuit for product = 1301 [True,False,True,False,False,False,True,False,True,False,True]
c Variables for output [msb,...,lsb]: [316,315,310,305,300,295,290,285,280,276,224,169,114,59,29,17]
c Variables for first input [msb,...,lsb]: [10,9,8,7,6,5,4,3,2,1]
c Variables for second input [msb,...,lsb]: [16,15,14,13,12,11]
c
c
p cnf 316 1216
1 11 -17 0
1 -11 -17 0
-1 11 -17 0
-1 -11 17 0
2 11 -18 0
2 -11 -18 0
-2 11 -18 0
-2 -11 18 0
3 11 -19 0
3 -11 -19 0
-3 11 -19 0
-3 -11 19 0
4 11 -20 0
4 -11 -20 0
-4 11 -20 0
-4 -11 20 0
5 11 -21 0
5 -11 -21 0
-5 11 -21 0
-5 -11 21 0
6 11 -22 0
6 -11 -22 0
-6 11 -22 0
-6 -11 22 0
7 11 -23 0
7 -11 -23 0
-7 11 -23 0
-7 -11 23 0
8 11 -24 0
8 -11 -24 0
-8 11 -24 0
-8 -11 24 0
9 11 -25 0
9 -11 -25 0
-9 11 -25 0
-9 -11 25 0
10 11 -26 0
10 -11 -26 0
-10 11 -26 0
-10 -11 26 0
1 12 -27 0
1 -12 -27 0
-1 12 -27 0
-1 -12 27 0
18 27 -28 0
18 -27 -28 0
-18 27 -28 0
-18 -27 28 0
18 27 -29 0
18 -27 29 0
-18 27 29 0
-18 -27 -29 0
2 12 -30 0
2 -12 -30 0
-2 12 -30 0
-2 -12 30 0
19 30 -31 0
19 -30 -31 0
-19 30 -31 0
-19 -30 31 0
19 30 -32 0
19 -30 32 0
-19 30 32 0
-19 -30 -32 0
3 12 -33 0
3 -12 -33 0
-3 12 -33 0
-3 -12 33 0
20 33 -34 0
20 -33 -34 0
-20 33 -34 0
-20 -33 34 0
20 33 -35 0
20 -33 35 0
-20 33 35 0
-20 -33 -35 0
4 12 -36 0
4 -12 -36 0
-4 12 -36 0
-4 -12 36 0
21 36 -37 0
21 -36 -37 0
-21 36 -37 0
-21 -36 37 0
21 36 -38 0
21 -36 38 0
-21 36 38 0
-21 -36 -38 0
5 12 -39 0
5 -12 -39 0
-5 12 -39 0
-5 -12 39 0
22 39 -40 0
22 -39 -40 0
-22 39 -40 0
-22 -39 40 0
22 39 -41 0
22 -39 41 0
-22 39 41 0
-22 -39 -41 0
6 12 -42 0
6 -12 -42 0
-6 12 -42 0
-6 -12 42 0
23 42 -43 0
23 -42 -43 0
-23 42 -43 0
-23 -42 43 0
23 42 -44 0
23 -42 44 0
-23 42 44 0
-23 -42 -44 0
7 12 -45 0
7 -12 -45 0
-7 12 -45 0
-7 -12 45 0
24 45 -46 0
24 -45 -46 0
-24 45 -46 0
-24 -45 46 0
24 45 -47 0
24 -45 47 0
-24 45 47 0
-24 -45 -47 0
8 12 -48 0
8 -12 -48 0
-8 12 -48 0
-8 -12 48 0
25 48 -49 0
25 -48 -49 0
-25 48 -49 0
-25 -48 49 0
25 48 -50 0
25 -48 50 0
-25 48 50 0
-25 -48 -50 0
9 12 -51 0
9 -12 -51 0
-9 12 -51 0
-9 -12 51 0
26 51 -52 0
26 -51 -52 0
-26 51 -52 0
-26 -51 52 0
26 51 -53 0
26 -51 53 0
-26 51 53 0
-26 -51 -53 0
10 12 -54 0
10 -12 -54 0
-10 12 -54 0
-10 -12 54 0
1 13 -55 0
1 -13 -55 0
-1 13 -55 0
-1 -13 55 0
32 55 -56 0
32 -55 -56 0
-32 55 -56 0
-32 -55 56 0
32 55 -57 0
32 -55 57 0
-32 55 57 0
-32 -55 -57 0
28 57 -58 0
28 -57 -58 0
-28 57 -58 0
-28 -57 58 0
28 57 -59 0
28 -57 59 0
-28 57 59 0
-28 -57 -59 0
56 58 -60 0
56 -58 60 0
-56 58 60 0
-56 -58 -60 0
2 13 -61 0
2 -13 -61 0
-2 13 -61 0
-2 -13 61 0
35 61 -62 0
35 -61 -62 0
-35 61 -62 0
-35 -61 62 0
35 61 -63 0
35 -61 63 0
-35 61 63 0
-35 -61 -63 0
31 63 -64 0
31 -63 -64 0
-31 63 -64 0
-31 -63 64 0
31 63 -65 0
31 -63 65 0
-31 63 65 0
-31 -63 -65 0
62 64 -66 0
62 -64 66 0
-62 64 66 0
-62 -64 -66 0
3 13 -67 0
3 -13 -67 0
-3 13 -67 0
-3 -13 67 0
38 67 -68 0
38 -67 -68 0
-38 67 -68 0
-38 -67 68 0
38 67 -69 0
38 -67 69 0
-38 67 69 0
-38 -67 -69 0
34 69 -70 0
34 -69 -70 0
-34 69 -70 0
-34 -69 70 0
34 69 -71 0
34 -69 71 0
-34 69 71 0
-34 -69 -71 0
68 70 -72 0
68 -70 72 0
-68 70 72 0
-68 -70 -72 0
4 13 -73 0
4 -13 -73 0
-4 13 -73 0
-4 -13 73 0
41 73 -74 0
41 -73 -74 0
-41 73 -74 0
-41 -73 74 0
41 73 -75 0
41 -73 75 0
-41 73 75 0
-41 -73 -75 0
37 75 -76 0
37 -75 -76 0
-37 75 -76 0
-37 -75 76 0
37 75 -77 0
37 -75 77 0
-37 75 77 0
-37 -75 -77 0
74 76 -78 0
74 -76 78 0
-74 76 78 0
-74 -76 -78 0
5 13 -79 0
5 -13 -79 0
-5 13 -79 0
-5 -13 79 0
44 79 -80 0
44 -79 -80 0
-44 79 -80 0
-44 -79 80 0
44 79 -81 0
44 -79 81 0
-44 79 81 0
-44 -79 -81 0
40 81 -82 0
40 -81 -82 0
-40 81 -82 0
-40 -81 82 0
40 81 -83 0
40 -81 83 0
-40 81 83 0
-40 -81 -83 0
80 82 -84 0
80 -82 84 0
-80 82 84 0
-80 -82 -84 0
6 13 -85 0
6 -13 -85 0
-6 13 -85 0
-6 -13 85 0
47 85 -86 0
47 -85 -86 0
-47 85 -86 0
-47 -85 86 0
47 85 -87 0
47 -85 87 0
-47 85 87 0
-47 -85 -87 0
43 87 -88 0
43 -87 -88 0
-43 87 -88 0
-43 -87 88 0
43 87 -89 0
43 -87 89 0
-43 87 89 0
-43 -87 -89 0
86 88 -90 0
86 -88 90 0
-86 88 90 0
-86 -88 -90 0
7 13 -91 0
7 -13 -91 0
-7 13 -91 0
-7 -13 91 0
50 91 -92 0
50 -91 -92 0
-50 91 -92 0
-50 -91 92 0
50 91 -93 0
50 -91 93 0
-50 91 93 0
-50 -91 -93 0
46 93 -94 0
46 -93 -94 0
-46 93 -94 0
-46 -93 94 0
46 93 -95 0
46 -93 95 0
-46 93 95 0
-46 -93 -95 0
92 94 -96 0
92 -94 96 0
-92 94 96 0
-92 -94 -96 0
8 13 -97 0
8 -13 -97 0
-8 13 -97 0
-8 -13 97 0
53 97 -98 0
53 -97 -98 0
-53 97 -98 0
-53 -97 98 0
53 97 -99 0
53 -97 99 0
-53 97 99 0
-53 -97 -99 0
49 99 -100 0
49 -99 -100 0
-49 99 -100 0
-49 -99 100 0
49 99 -101 0
49 -99 101 0
-49 99 101 0
-49 -99 -101 0
98 100 -102 0
98 -100 102 0
-98 100 102 0
-98 -100 -102 0
9 13 -103 0
9 -13 -103 0
-9 13 -103 0
-9 -13 103 0
54 103 -104 0
54 -103 -104 0
-54 103 -104 0
-54 -103 104 0
54 103 -105 0
54 -103 105 0
-54 103 105 0
-54 -103 -105 0
52 105 -106 0
52 -105 -106 0
-52 105 -106 0
-52 -105 106 0
52 105 -107 0
52 -105 107 0
-52 105 107 0
-52 -105 -107 0
104 106 -108 0
104 -106 108 0
-104 106 108 0
-104 -106 -108 0
10 13 -109 0
10 -13 -109 0
-10 13 -109 0
-10 -13 109 0
1 14 -110 0
1 -14 -110 0
-1 14 -110 0
-1 -14 110 0
65 110 -111 0
65 -110 -111 0
-65 110 -111 0
-65 -110 111 0
65 110 -112 0
65 -110 112 0
-65 110 112 0
-65 -110 -112 0
60 112 -113 0
60 -112 -113 0
-60 112 -113 0
-60 -112 113 0
60 112 -114 0
60 -112 114 0
-60 112 114 0
-60 -112 -114 0
111 113 -115 0
111 -113 115 0
-111 113 115 0
-111 -113 -115 0
2 14 -116 0
2 -14 -116 0
-2 14 -116 0
-2 -14 116 0
71 116 -117 0
71 -116 -117 0
-71 116 -117 0
-71 -116 117 0
71 116 -118 0
71 -116 118 0
-71 116 118 0
-71 -116 -118 0
66 118 -119 0
66 -118 -119 0
-66 118 -119 0
-66 -118 119 0
66 118 -120 0
66 -118 120 0
-66 118 120 0
-66 -118 -120 0
117 119 -121 0
117 -119 121 0
-117 119 121 0
-117 -119 -121 0
3 14 -122 0
3 -14 -122 0
-3 14 -122 0
-3 -14 122 0
77 122 -123 0
77 -122 -123 0
-77 122 -123 0
-77 -122 123 0
77 122 -124 0
77 -122 124 0
-77 122 124 0
-77 -122 -124 0
72 124 -125 0
72 -124 -125 0
-72 124 -125 0
-72 -124 125 0
72 124 -126 0
72 -124 126 0
-72 124 126 0
-72 -124 -126 0
123 125 -127 0
123 -125 127 0
-123 125 127 0
-123 -125 -127 0
4 14 -128 0
4 -14 -128 0
-4 14 -128 0
-4 -14 128 0
83 128 -129 0
83 -128 -129 0
-83 128 -129 0
-83 -128 129 0
83 128 -130 0
83 -128 130 0
-83 128 130 0
-83 -128 -130 0
78 130 -131 0
78 -130 -131 0
-78 130 -131 0
-78 -130 131 0
78 130 -132 0
78 -130 132 0
-78 130 132 0
-78 -130 -132 0
129 131 -133 0
129 -131 133 0
-129 131 133 0
-129 -131 -133 0
5 14 -134 0
5 -14 -134 0
-5 14 -134 0
-5 -14 134 0
89 134 -135 0
89 -134 -135 0
-89 134 -135 0
-89 -134 135 0
89 134 -136 0
89 -134 136 0
-89 134 136 0
-89 -134 -136 0
84 136 -137 0
84 -136 -137 0
-84 136 -137 0
-84 -136 137 0
84 136 -138 0
84 -136 138 0
-84 136 138 0
-84 -136 -138 0
135 137 -139 0
135 -137 139 0
-135 137 139 0
-135 -137 -139 0
6 14 -140 0
6 -14 -140 0
-6 14 -140 0
-6 -14 140 0
95 140 -141 0
95 -140 -141 0
-95 140 -141 0
-95 -140 141 0
95 140 -142 0
95 -140 142 0
-95 140 142 0
-95 -140 -142 0
90 142 -143 0
90 -142 -143 0
-90 142 -143 0
-90 -142 143 0
90 142 -144 0
90 -142 144 0
-90 142 144 0
-90 -142 -144 0
141 143 -145 0
141 -143 145 0
-141 143 145 0
-141 -143 -145 0
7 14 -146 0
7 -14 -146 0
-7 14 -146 0
-7 -14 146 0
101 146 -147 0
101 -146 -147 0
-101 146 -147 0
-101 -146 147 0
101 146 -148 0
101 -146 148 0
-101 146 148 0
-101 -146 -148 0
96 148 -149 0
96 -148 -149 0
-96 148 -149 0
-96 -148 149 0
96 148 -150 0
96 -148 150 0
-96 148 150 0
-96 -148 -150 0
147 149 -151 0
147 -149 151 0
-147 149 151 0
-147 -149 -151 0
8 14 -152 0
8 -14 -152 0
-8 14 -152 0
-8 -14 152 0
107 152 -153 0
107 -152 -153 0
-107 152 -153 0
-107 -152 153 0
107 152 -154 0
107 -152 154 0
-107 152 154 0
-107 -152 -154 0
102 154 -155 0
102 -154 -155 0
-102 154 -155 0
-102 -154 155 0
102 154 -156 0
102 -154 156 0
-102 154 156 0
-102 -154 -156 0
153 155 -157 0
153 -155 157 0
-153 155 157 0
-153 -155 -157 0
9 14 -158 0
9 -14 -158 0
-9 14 -158 0
-9 -14 158 0
109 158 -159 0
109 -158 -159 0
-109 158 -159 0
-109 -158 159 0
109 158 -160 0
109 -158 160 0
-109 158 160 0
-109 -158 -160 0
108 160 -161 0
108 -160 -161 0
-108 160 -161 0
-108 -160 161 0
108 160 -162 0
108 -160 162 0
-108 160 162 0
-108 -160 -162 0
159 161 -163 0
159 -161 163 0
-159 161 163 0
-159 -161 -163 0
10 14 -164 0
10 -14 -164 0
-10 14 -164 0
-10 -14 164 0
1 15 -165 0
1 -15 -165 0
-1 15 -165 0
-1 -15 165 0
120 165 -166 0
120 -165 -166 0
-120 165 -166 0
-120 -165 166 0
120 165 -167 0
120 -165 167 0
-120 165 167 0
-120 -165 -167 0
115 167 -168 0
115 -167 -168 0
-115 167 -168 0
-115 -167 168 0
115 167 -169 0
115 -167 169 0
-115 167 169 0
-115 -167 -169 0
166 168 -170 0
166 -168 170 0
-166 168 170 0
-166 -168 -170 0
2 15 -171 0
2 -15 -171 0
-2 15 -171 0
-2 -15 171 0
126 171 -172 0
126 -171 -172 0
-126 171 -172 0
-126 -171 172 0
126 171 -173 0
126 -171 173 0
-126 171 173 0
-126 -171 -173 0
121 173 -174 0
121 -173 -174 0
-121 173 -174 0
-121 -173 174 0
121 173 -175 0
121 -173 175 0
-121 173 175 0
-121 -173 -175 0
172 174 -176 0
172 -174 176 0
-172 174 176 0
-172 -174 -176 0
3 15 -177 0
3 -15 -177 0
-3 15 -177 0
-3 -15 177 0
132 177 -178 0
132 -177 -178 0
-132 177 -178 0
-132 -177 178 0
132 177 -179 0
132 -177 179 0
-132 177 179 0
-132 -177 -179 0
127 179 -180 0
127 -179 -180 0
-127 179 -180 0
-127 -179 180 0
127 179 -181 0
127 -179 181 0
-127 179 181 0
-127 -179 -181 0
178 180 -182 0
178 -180 182 0
-178 180 182 0
-178 -180 -182 0
4 15 -183 0
4 -15 -183 0
-4 15 -183 0
-4 -15 183 0
138 183 -184 0
138 -183 -184 0
-138 183 -184 0
-138 -183 184 0
138 183 -185 0
138 -183 185 0
-138 183 185 0
-138 -183 -185 0
133 185 -186 0
133 -185 -186 0
-133 185 -186 0
-133 -185 186 0
133 185 -187 0
133 -185 187 0
-133 185 187 0
-133 -185 -187 0
184 186 -188 0
184 -186 188 0
-184 186 188 0
-184 -186 -188 0
5 15 -189 0
5 -15 -189 0
-5 15 -189 0
-5 -15 189 0
144 189 -190 0
144 -189 -190 0
-144 189 -190 0
-144 -189 190 0
144 189 -191 0
144 -189 191 0
-144 189 191 0
-144 -189 -191 0
139 191 -192 0
139 -191 -192 0
-139 191 -192 0
-139 -191 192 0
139 191 -193 0
139 -191 193 0
-139 191 193 0
-139 -191 -193 0
190 192 -194 0
190 -192 194 0
-190 192 194 0
-190 -192 -194 0
6 15 -195 0
6 -15 -195 0
-6 15 -195 0
-6 -15 195 0
150 195 -196 0
150 -195 -196 0
-150 195 -196 0
-150 -195 196 0
150 195 -197 0
150 -195 197 0
-150 195 197 0
-150 -195 -197 0
145 197 -198 0
145 -197 -198 0
-145 197 -198 0
-145 -197 198 0
145 197 -199 0
145 -197 199 0
-145 197 199 0
-145 -197 -199 0
196 198 -200 0
196 -198 200 0
-196 198 200 0
-196 -198 -200 0
7 15 -201 0
7 -15 -201 0
-7 15 -201 0
-7 -15 201 0
156 201 -202 0
156 -201 -202 0
-156 201 -202 0
-156 -201 202 0
156 201 -203 0
156 -201 203 0
-156 201 203 0
-156 -201 -203 0
151 203 -204 0
151 -203 -204 0
-151 203 -204 0
-151 -203 204 0
151 203 -205 0
151 -203 205 0
-151 203 205 0
-151 -203 -205 0
202 204 -206 0
202 -204 206 0
-202 204 206 0
-202 -204 -206 0
8 15 -207 0
8 -15 -207 0
-8 15 -207 0
-8 -15 207 0
162 207 -208 0
162 -207 -208 0
-162 207 -208 0
-162 -207 208 0
162 207 -209 0
162 -207 209 0
-162 207 209 0
-162 -207 -209 0
157 209 -210 0
157 -209 -210 0
-157 209 -210 0
-157 -209 210 0
157 209 -211 0
157 -209 211 0
-157 209 211 0
-157 -209 -211 0
208 210 -212 0
208 -210 212 0
-208 210 212 0
-208 -210 -212 0
9 15 -213 0
9 -15 -213 0
-9 15 -213 0
-9 -15 213 0
164 213 -214 0
164 -213 -214 0
-164 213 -214 0
-164 -213 214 0
164 213 -215 0
164 -213 215 0
-164 213 215 0
-164 -213 -215 0
163 215 -216 0
163 -215 -216 0
-163 215 -216 0
-163 -215 216 0
163 215 -217 0
163 -215 217 0
-163 215 217 0
-163 -215 -217 0
214 216 -218 0
214 -216 218 0
-214 216 218 0
-214 -216 -218 0
10 15 -219 0
10 -15 -219 0
-10 15 -219 0
-10 -15 219 0
1 16 -220 0
1 -16 -220 0
-1 16 -220 0
-1 -16 220 0
175 220 -221 0
175 -220 -221 0
-175 220 -221 0
-175 -220 221 0
175 220 -222 0
175 -220 222 0
-175 220 222 0
-175 -220 -222 0
170 222 -223 0
170 -222 -223 0
-170 222 -223 0
-170 -222 223 0
170 222 -224 0
170 -222 224 0
-170 222 224 0
-170 -222 -224 0
221 223 -225 0
221 -223 225 0
-221 223 225 0
-221 -223 -225 0
2 16 -226 0
2 -16 -226 0
-2 16 -226 0
-2 -16 226 0
181 226 -227 0
181 -226 -227 0
-181 226 -227 0
-181 -226 227 0
181 226 -228 0
181 -226 228 0
-181 226 228 0
-181 -226 -228 0
176 228 -229 0
176 -228 -229 0
-176 228 -229 0
-176 -228 229 0
176 228 -230 0
176 -228 230 0
-176 228 230 0
-176 -228 -230 0
227 229 -231 0
227 -229 231 0
-227 229 231 0
-227 -229 -231 0
3 16 -232 0
3 -16 -232 0
-3 16 -232 0
-3 -16 232 0
187 232 -233 0
187 -232 -233 0
-187 232 -233 0
-187 -232 233 0
187 232 -234 0
187 -232 234 0
-187 232 234 0
-187 -232 -234 0
182 234 -235 0
182 -234 -235 0
-182 234 -235 0
-182 -234 235 0
182 234 -236 0
182 -234 236 0
-182 234 236 0
-182 -234 -236 0
233 235 -237 0
233 -235 237 0
-233 235 237 0
-233 -235 -237 0
4 16 -238 0
4 -16 -238 0
-4 16 -238 0
-4 -16 238 0
193 238 -239 0
193 -238 -239 0
-193 238 -239 0
-193 -238 239 0
193 238 -240 0
193 -238 240 0
-193 238 240 0
-193 -238 -240 0
188 240 -241 0
188 -240 -241 0
-188 240 -241 0
-188 -240 241 0
188 240 -242 0
188 -240 242 0
-188 240 242 0
-188 -240 -242 0
239 241 -243 0
239 -241 243 0
-239 241 243 0
-239 -241 -243 0
5 16 -244 0
5 -16 -244 0
-5 16 -244 0
-5 -16 244 0
199 244 -245 0
199 -244 -245 0
-199 244 -245 0
-199 -244 245 0
199 244 -246 0
199 -244 246 0
-199 244 246 0
-199 -244 -246 0
194 246 -247 0
194 -246 -247 0
-194 246 -247 0
-194 -246 247 0
194 246 -248 0
194 -246 248 0
-194 246 248 0
-194 -246 -248 0
245 247 -249 0
245 -247 249 0
-245 247 249 0
-245 -247 -249 0
6 16 -250 0
6 -16 -250 0
-6 16 -250 0
-6 -16 250 0
205 250 -251 0
205 -250 -251 0
-205 250 -251 0
-205 -250 251 0
205 250 -252 0
205 -250 252 0
-205 250 252 0
-205 -250 -252 0
200 252 -253 0
200 -252 -253 0
-200 252 -253 0
-200 -252 253 0
200 252 -254 0
200 -252 254 0
-200 252 254 0
-200 -252 -254 0
251 253 -255 0
251 -253 255 0
-251 253 255 0
-251 -253 -255 0
7 16 -256 0
7 -16 -256 0
-7 16 -256 0
-7 -16 256 0
211 256 -257 0
211 -256 -257 0
-211 256 -257 0
-211 -256 257 0
211 256 -258 0
211 -256 258 0
-211 256 258 0
-211 -256 -258 0
206 258 -259 0
206 -258 -259 0
-206 258 -259 0
-206 -258 259 0
206 258 -260 0
206 -258 260 0
-206 258 260 0
-206 -258 -260 0
257 259 -261 0
257 -259 261 0
-257 259 261 0
-257 -259 -261 0
8 16 -262 0
8 -16 -262 0
-8 16 -262 0
-8 -16 262 0
217 262 -263 0
217 -262 -263 0
-217 262 -263 0
-217 -262 263 0
217 262 -264 0
217 -262 264 0
-217 262 264 0
-217 -262 -264 0
212 264 -265 0
212 -264 -265 0
-212 264 -265 0
-212 -264 265 0
212 264 -266 0
212 -264 266 0
-212 264 266 0
-212 -264 -266 0
263 265 -267 0
263 -265 267 0
-263 265 267 0
-263 -265 -267 0
9 16 -268 0
9 -16 -268 0
-9 16 -268 0
-9 -16 268 0
219 268 -269 0
219 -268 -269 0
-219 268 -269 0
-219 -268 269 0
219 268 -270 0
219 -268 270 0
-219 268 270 0
-219 -268 -270 0
218 270 -271 0
218 -270 -271 0
-218 270 -271 0
-218 -270 271 0
218 270 -272 0
218 -270 272 0
-218 270 272 0
-218 -270 -272 0
269 271 -273 0
269 -271 273 0
-269 271 273 0
-269 -271 -273 0
10 16 -274 0
10 -16 -274 0
-10 16 -274 0
-10 -16 274 0
225 230 -275 0
225 -230 -275 0
-225 230 -275 0
-225 -230 275 0
225 230 -276 0
225 -230 276 0
-225 230 276 0
-225 -230 -276 0
231 236 -277 0
231 -236 -277 0
-231 236 -277 0
-231 -236 277 0
231 236 -278 0
231 -236 278 0
-231 236 278 0
-231 -236 -278 0
275 278 -279 0
275 -278 -279 0
-275 278 -279 0
-275 -278 279 0
275 278 -280 0
275 -278 280 0
-275 278 280 0
-275 -278 -280 0
277 279 -281 0
277 -279 281 0
-277 279 281 0
-277 -279 -281 0
237 242 -282 0
237 -242 -282 0
-237 242 -282 0
-237 -242 282 0
237 242 -283 0
237 -242 283 0
-237 242 283 0
-237 -242 -283 0
281 283 -284 0
281 -283 -284 0
-281 283 -284 0
-281 -283 284 0
281 283 -285 0
281 -283 285 0
-281 283 285 0
-281 -283 -285 0
282 284 -286 0
282 -284 286 0
-282 284 286 0
-282 -284 -286 0
243 248 -287 0
243 -248 -287 0
-243 248 -287 0
-243 -248 287 0
243 248 -288 0
243 -248 288 0
-243 248 288 0
-243 -248 -288 0
286 288 -289 0
286 -288 -289 0
-286 288 -289 0
-286 -288 289 0
286 288 -290 0
286 -288 290 0
-286 288 290 0
-286 -288 -290 0
287 289 -291 0
287 -289 291 0
-287 289 291 0
-287 -289 -291 0
249 254 -292 0
249 -254 -292 0
-249 254 -292 0
-249 -254 292 0
249 254 -293 0
249 -254 293 0
-249 254 293 0
-249 -254 -293 0
291 293 -294 0
291 -293 -294 0
-291 293 -294 0
-291 -293 294 0
291 293 -295 0
291 -293 295 0
-291 293 295 0
-291 -293 -295 0
292 294 -296 0
292 -294 296 0
-292 294 296 0
-292 -294 -296 0
255 260 -297 0
255 -260 -297 0
-255 260 -297 0
-255 -260 297 0
255 260 -298 0
255 -260 298 0
-255 260 298 0
-255 -260 -298 0
296 298 -299 0
296 -298 -299 0
-296 298 -299 0
-296 -298 299 0
296 298 -300 0
296 -298 300 0
-296 298 300 0
-296 -298 -300 0
297 299 -301 0
297 -299 301 0
-297 299 301 0
-297 -299 -301 0
261 266 -302 0
261 -266 -302 0
-261 266 -302 0
-261 -266 302 0
261 266 -303 0
261 -266 303 0
-261 266 303 0
-261 -266 -303 0
301 303 -304 0
301 -303 -304 0
-301 303 -304 0
-301 -303 304 0
301 303 -305 0
301 -303 305 0
-301 303 305 0
-301 -303 -305 0
302 304 -306 0
302 -304 306 0
-302 304 306 0
-302 -304 -306 0
267 272 -307 0
267 -272 -307 0
-267 272 -307 0
-267 -272 307 0
267 272 -308 0
267 -272 308 0
-267 272 308 0
-267 -272 -308 0
306 308 -309 0
306 -308 -309 0
-306 308 -309 0
-306 -308 309 0
306 308 -310 0
306 -308 310 0
-306 308 310 0
-306 -308 -310 0
307 309 -311 0
307 -309 311 0
-307 309 311 0
-307 -309 -311 0
273 274 -312 0
273 -274 -312 0
-273 274 -312 0
-273 -274 312 0
273 274 -313 0
273 -274 313 0
-273 274 313 0
-273 -274 -313 0
311 313 -314 0
311 -313 -314 0
-311 313 -314 0
-311 -313 314 0
311 313 -315 0
311 -313 315 0
-311 313 315 0
-311 -313 -315 0
312 314 -316 0
312 -314 316 0
-312 314 316 0
-312 -314 -316 0
17 0
-29 0
59 0
-114 0
169 0
-224 0
-276 0
-280 0
285 0
-290 0
295 0
-300 0
-305 0
-310 0
-315 0
-316 0